NAME : kro124p.tour
COMMENT : Optimum tour for kro124p.tsp (Length 36230)
TYPE : TOUR
DIMENSION : 100
TOUR_SECTION  
35
62
60
77
98
91
23
45
32
15
17
11
21
59
74
72
10
84
36
38
24
99
18
79
53
16
22
94
88
70
65
26
66
4
97
75
19
56
80
31
89
42
8
92
90
49
6
63
47
1
93
67
28
58
61
81
69
68
85
9
87
51
25
73
50
44
54
40
64
2
82
95
13
76
33
37
5
52
78
96
39
30
48
41
100
71
3
43
46
14
29
34
83
55
12
7
57
86
27
20
-1
EOF
